p tw 20 40
1 2
1 6
2 3
2 7
3 4
3 8
4 5
4 9
5 1
5 10
6 7
6 11
7 8
7 12
8 9
8 13
9 10
9 14
10 6
10 15
11 12
11 16
12 13
12 17
13 14
13 18
14 15
14 19
15 11
15 20
16 17
16 1
17 18
17 2
18 19
18 3
19 20
19 4
20 16
20 5
